Instance name: /mnt/c/Users/ORG/CLionProjects/uMV-FSTSP/Murray_Chu_2015_test_data/FSTSP/FSTSP_10_customer_problems/20140810T123437v6

drone speed: 0.4 miles/minute
uav non-eligible customer: 10 
Printing number of nodes: 11

Set parameter Threads to value 20
Gurobi Optimizer version 11.0.0 build v11.0.0rc2 (linux64 - "Ubuntu 22.04.3 LTS")

CPU model: 13th Gen Intel(R) Core(TM) i5-13500, instruction set [SSE2|AVX|AVX2]
Thread count: 10 physical cores, 20 logical processors, using up to 20 threads

Optimize a model with 6191 rows, 1825 columns and 197592 nonzeros
Model fingerprint: 0x257f596a
Variable types: 11 continuous, 1814 integer (1814 binary)
Coefficient statistics:
  Matrix range     [6e-01, 2e+01]
  Objective range  [8e-01, 2e+01]
  Bounds range     [1e+00, 1e+00]
  RHS range        [1e+00, 8e+00]
Found heuristic solution: objective 112.8454206
Presolve removed 480 rows and 695 columns
Presolve time: 0.46s
Presolved: 5711 rows, 1130 columns, 164536 nonzeros
Variable types: 9 continuous, 1121 integer (1121 binary)

Root relaxation: objective 3.897379e+01, 6123 iterations, 0.47 seconds (1.25 work units)

    Nodes    |    Current Node    |     Objective Bounds      |     Work
 Expl Unexpl |  Obj  Depth IntInf | Incumbent    BestBd   Gap | It/Node Time

     0     0   38.97379    0  133  112.84542   38.97379  65.5%     -    1s
H    0     0                     107.7181015   38.97379  63.8%     -    1s
H    0     0                      89.2715441   38.97379  56.3%     -    1s
H    0     0                      87.5410960   38.97379  55.5%     -    1s
H    0     0                      52.5990032   38.97379  25.9%     -    1s
     0     0   40.38049    0  174   52.59900   40.38049  23.2%     -    1s
     0     0   41.72860    0  163   52.59900   41.72860  20.7%     -    1s
H    0     0                      49.5240192   41.72860  15.7%     -    1s
     0     0   41.76067    0  167   49.52402   41.76067  15.7%     -    1s
     0     0   41.76067    0  168   49.52402   41.76067  15.7%     -    1s
     0     0   41.78591    0  172   49.52402   41.78591  15.6%     -    1s
     0     0   42.09293    0  203   49.52402   42.09293  15.0%     -    2s
     0     0   42.11189    0  216   49.52402   42.11189  15.0%     -    2s
     0     0   42.22734    0  205   49.52402   42.22734  14.7%     -    2s
     0     0   42.29197    0  211   49.52402   42.29197  14.6%     -    2s
     0     0   42.36089    0  215   49.52402   42.36089  14.5%     -    2s
     0     0   42.36089    0  217   49.52402   42.36089  14.5%     -    2s
     0     0   42.41583    0  232   49.52402   42.41583  14.4%     -    2s
     0     0   42.41583    0  231   49.52402   42.41583  14.4%     -    2s
     0     2   42.41583    0  231   49.52402   42.41583  14.4%     -    3s
H   44    46                      48.6040192   42.47229  12.6%   234    4s
   111    69   45.11898    7   82   48.60402   42.47997  12.6%   141    5s

Cutting planes:
  Gomory: 5
  Cover: 3
  Clique: 7
  MIR: 7
  Inf proof: 1
  Zero half: 30
  RLT: 11

Explored 697 nodes (52698 simplex iterations) in 8.21 seconds (15.19 work units)
Thread count was 20 (of 20 available processors)

Solution count 7: 48.604 49.524 52.599 ... 112.845

Optimal solution found (tolerance 1.00e-04)
Best objective 4.860401924870e+01, best bound 4.860401924870e+01, gap 0.0000%
